n = 100;
C = 26705;
w = [465,128,468,213,730,646,406,921,521,290,927,100,719,846,844,35,450,535,82,375,442,928,502,754,388,102,583,886,873,213,591,751,248,841,70,500,352,294,823,146,47,841,968,425,598,973,278,605,235,295,887,614,349,746,967,736,323,756,716,628,918,743,761,813,986,72,646,124,825,747,887,13,80,718,345,23,824,833,320,368,583,813,508,142,604,922,118,239,382,63,496,451,46,950,819,805,608,317,590,933];
p = [515,207,555,271,766,720,313,874,586,243,835,33,739,868,858,107,465,597,24,362,520,946,536,683,326,64,628,824,864,154,668,849,262,915,130,483,315,209,793,217,87,782,1009,504,647,1054,181,577,185,388,847,604,401,798,945,713,343,766,803,695,936,728,672,725,938,87,585,213,793,744,978,-75,-2,655,298,68,908,878,339,397,554,859,409,228,524,824,138,315,443,-31,436,410,130,955,742,712,688,264,610,1027];
